src/asp/benchmarks/small10.lp
citta(magione).
citta(orvieto).
citta(terni).

richiesta(magione, strade, 31).
richiesta(magione, fiumi, 124).
richiesta(magione, scuole, 106).
richiesta(magione, parchi, 5).
richiesta(magione, energia, 82).

richiesta(orvieto, strade, 47).
richiesta(orvieto, fiumi, 133).
richiesta(orvieto, scuole, 35).
richiesta(orvieto, parchi, 36).
richiesta(orvieto, energia, 208).

richiesta(terni, strade, 56).
richiesta(terni, fiumi, 17).
richiesta(terni, scuole, 2).
richiesta(terni, parchi, 37).
richiesta(terni, energia, 74).

