src/minizinc/benchmarks/small10.dzn
COMUNI = {
	citta_di_castello,
	todi,
	corciano,
};

NUMERO_COMUNI = 3;

ABITANTI_PER_COMUNE = [38, 15, 21];

STRADE_TRA_COMUNI = [|
	false, false, false |
	false, false, false |
	false, false, false |
|];

RICHIESTE = [|
	25, 160, 73, 137, 185 |
	4, 8, 39, 112, 56 |
	34, 38, 1, 32, 89 |
|];
